NAME : berlin52Preorder.4108.tour
COMMENT : Length = 4108
COMMENT : Found by LKH [Keld Helsgaun] Thu Apr 23 21:16:22 2020
TYPE : TOUR
DIMENSION : 52
TOUR_SECTION
1
49
32
45
19
41
8
9
10
43
33
51
11
52
13
14
47
26
27
28
12
25
4
6
15
5
24
48
38
37
40
39
36
35
34
44
46
16
29
50
20
23
30
2
7
42
21
17
3
18
31
22
-1
EOF
